data;

param num_top:=5;

#nodes and edges of the physical network
param n := 10;

set E := (1,2) (1,3) (1,7) (2,4) (2,7) (3,5) (4,8) (5,6) (5,7) (6,7) (6,9) (7,8) (7,9) (8,10) (9,10) ;

#nodes and edges of the virtual networks
set Nl[1] := 9 2 7 5 ;
set Nl[2] := 3 8 9 4 ;
set Nl[3] := 9 7 8 3 6 ;
set Nl[4] := 8 2 5 3 1 ;
set Nl[5] := 6 8 10 4 ;

set El[1] := (2,9) (2,7) (5,7) (5,9) ;
set El[2] := (3,8) (8,9) (4,9) (3,4) (4,8) (3,9) ;
set El[3] := (7,9) (7,8) (3,8) (3,6) (6,9) ;
set El[4] := (2,8) (2,5) (3,5) (1,3) (1,8) (3,8) (1,5) (1,2) (5,8) (2,3) ;
set El[5] := (6,8) (8,10) (4,10) (4,6) (4,8) (6,10) ;
